clingo version 5.6.2
Reading from ...c_projection/basic_projection-facts.lp ...
Solving...
Answer: 1
data(a,b,c) data(b,b,d) data(c,d,d) data(a,e,f) a(a,c) a(b,d) a(c,d) a(a,f) b(c,a) b(d,b) b(d,c) b(f,a) c(a) c(b) c(c) d(b,c) d(b,d) d(d,d) d(e,f) e(c,b) e(d,b) e(d,d) e(f,e)
SATISFIABLE

Models       : 1
Calls        : 1
Time         : 0.005s (Solving: 0.00s 1st Model: 0.00s Unsat: 0.00s)
CPU Time     : 0.000s
